  6	52
 16
  0	 43	 38	 37	 25	 89	 95	 90	 45	 19	 35	 71	 77	 97	 87	105	
 18
  0	 40	 92	 24	 12	 44	 64	 96	 76	 46	 23	  5	 75	 51	 57	 98	103	105	
 22
  0	 48	100	 15	 11	 17	 63	  4	  3	 67	 56	 52	 69	 31	 55	 83	  9	104	 10	 61	 62	105	
 16
  0	  6	 32	 84	 58	 26	 47	 78	 33	 28	 80	 49	 85	101	 99	105	
 28
  0	  2	 13	 22	 30	 54	 65	 74	 82	 20	 21	 73	 16	 72	 42	 14	 34	 68	 66	 50	 94	  7	 86	 27	 59	102	 79	105	
 16
  0	 39	 29	  8	 91	 81	  1	 36	 41	 88	 53	 18	 60	 93	 70	105	
